language Essence 1.3

letting codeWordLength be 35
letting dist be
        function((1, 1) --> 0, (1, 2) --> 8, (1, 3) --> 14, (1, 4) --> 23, (1, 5) --> 1, (1, 6) --> 2, (1, 7) --> 22,
                 (1, 8) --> 11, (1, 9) --> 14, (1, 10) --> 21, (1, 11) --> 8, (1, 12) --> 6, (1, 13) --> 8,
                 (1, 14) --> 2, (1, 15) --> 18, (1, 16) --> 8, (1, 17) --> 25, (1, 18) --> 4, (2, 1) --> 8,
                 (2, 2) --> 0, (2, 3) --> 20, (2, 4) --> 7, (2, 5) --> 25, (2, 6) --> 5, (2, 7) --> 25, (2, 8) --> 22,
                 (2, 9) --> 2, (2, 10) --> 11, (2, 11) --> 18, (2, 12) --> 22, (2, 13) --> 18, (2, 14) --> 18,
                 (2, 15) --> 5, (2, 16) --> 20, (2, 17) --> 8, (2, 18) --> 20, (3, 1) --> 14, (3, 2) --> 20,
                 (3, 3) --> 0, (3, 4) --> 7, (3, 5) --> 8, (3, 6) --> 15, (3, 7) --> 1, (3, 8) --> 13, (3, 9) --> 1,
                 (3, 10) --> 18, (3, 11) --> 14, (3, 12) --> 5, (3, 13) --> 3, (3, 14) --> 13, (3, 15) --> 5,
                 (3, 16) --> 14, (3, 17) --> 14, (3, 18) --> 10, (4, 1) --> 23, (4, 2) --> 7, (4, 3) --> 7,
                 (4, 4) --> 0, (4, 5) --> 5, (4, 6) --> 0, (4, 7) --> 9, (4, 8) --> 4, (4, 9) --> 6, (4, 10) --> 9,
                 (4, 11) --> 23, (4, 12) --> 5, (4, 13) --> 2, (4, 14) --> 14, (4, 15) --> 18, (4, 16) --> 15,
                 (4, 17) --> 19, (4, 18) --> 1, (5, 1) --> 1, (5, 2) --> 25, (5, 3) --> 8, (5, 4) --> 5, (5, 5) --> 0,
                 (5, 6) --> 13, (5, 7) --> 12, (5, 8) --> 13, (5, 9) --> 3, (5, 10) --> 17, (5, 11) --> 1,
                 (5, 12) --> 14, (5, 13) --> 1, (5, 14) --> 24, (5, 15) --> 13, (5, 16) --> 15, (5, 17) --> 17,
                 (5, 18) --> 7, (6, 1) --> 2, (6, 2) --> 5, (6, 3) --> 15, (6, 4) --> 0, (6, 5) --> 13, (6, 6) --> 0,
                 (6, 7) --> 13, (6, 8) --> 21, (6, 9) --> 6, (6, 10) --> 20, (6, 11) --> 12, (6, 12) --> 5,
                 (6, 13) --> 20, (6, 14) --> 6, (6, 15) --> 18, (6, 16) --> 17, (6, 17) --> 3, (6, 18) --> 21,
                 (7, 1) --> 22, (7, 2) --> 25, (7, 3) --> 1, (7, 4) --> 9, (7, 5) --> 12, (7, 6) --> 13, (7, 7) --> 0,
                 (7, 8) --> 11, (7, 9) --> 13, (7, 10) --> 16, (7, 11) --> 11, (7, 12) --> 19, (7, 13) --> 19,
                 (7, 14) --> 3, (7, 15) --> 21, (7, 16) --> 2, (7, 17) --> 7, (7, 18) --> 16, (8, 1) --> 11,
                 (8, 2) --> 22, (8, 3) --> 13, (8, 4) --> 4, (8, 5) --> 13, (8, 6) --> 21, (8, 7) --> 11, (8, 8) --> 0,
                 (8, 9) --> 21, (8, 10) --> 15, (8, 11) --> 4, (8, 12) --> 13, (8, 13) --> 23, (8, 14) --> 22,
                 (8, 15) --> 11, (8, 16) --> 5, (8, 17) --> 22, (8, 18) --> 18, (9, 1) --> 14, (9, 2) --> 2,
                 (9, 3) --> 1, (9, 4) --> 6, (9, 5) --> 3, (9, 6) --> 6, (9, 7) --> 13, (9, 8) --> 21, (9, 9) --> 0,
                 (9, 10) --> 3, (9, 11) --> 8, (9, 12) --> 20, (9, 13) --> 8, (9, 14) --> 4, (9, 15) --> 11,
                 (9, 16) --> 12, (9, 17) --> 2, (9, 18) --> 3, (10, 1) --> 21, (10, 2) --> 11, (10, 3) --> 18,
                 (10, 4) --> 9, (10, 5) --> 17, (10, 6) --> 20, (10, 7) --> 16, (10, 8) --> 15, (10, 9) --> 3,
                 (10, 10) --> 0, (10, 11) --> 3, (10, 12) --> 1, (10, 13) --> 7, (10, 14) --> 12, (10, 15) --> 19,
                 (10, 16) --> 7, (10, 17) --> 24, (10, 18) --> 22, (11, 1) --> 8, (11, 2) --> 18, (11, 3) --> 14,
                 (11, 4) --> 23, (11, 5) --> 1, (11, 6) --> 12, (11, 7) --> 11, (11, 8) --> 4, (11, 9) --> 8,
                 (11, 10) --> 3, (11, 11) --> 0, (11, 12) --> 21, (11, 13) --> 12, (11, 14) --> 2, (11, 15) --> 2,
                 (11, 16) --> 1, (11, 17) --> 19, (11, 18) --> 15, (12, 1) --> 6, (12, 2) --> 22, (12, 3) --> 5,
                 (12, 4) --> 5, (12, 5) --> 14, (12, 6) --> 5, (12, 7) --> 19, (12, 8) --> 13, (12, 9) --> 20,
                 (12, 10) --> 1, (12, 11) --> 21, (12, 12) --> 0, (12, 13) --> 25, (12, 14) --> 4, (12, 15) --> 9,
                 (12, 16) --> 4, (12, 17) --> 11, (12, 18) --> 4, (13, 1) --> 8, (13, 2) --> 18, (13, 3) --> 3,
                 (13, 4) --> 2, (13, 5) --> 1, (13, 6) --> 20, (13, 7) --> 19, (13, 8) --> 23, (13, 9) --> 8,
                 (13, 10) --> 7, (13, 11) --> 12, (13, 12) --> 25, (13, 13) --> 0, (13, 14) --> 19, (13, 15) --> 5,
                 (13, 16) --> 25, (13, 17) --> 9, (13, 18) --> 23, (14, 1) --> 2, (14, 2) --> 18, (14, 3) --> 13,
                 (14, 4) --> 14, (14, 5) --> 24, (14, 6) --> 6, (14, 7) --> 3, (14, 8) --> 22, (14, 9) --> 4,
                 (14, 10) --> 12, (14, 11) --> 2, (14, 12) --> 4, (14, 13) --> 19, (14, 14) --> 0, (14, 15) --> 16,
                 (14, 16) --> 22, (14, 17) --> 1, (14, 18) --> 8, (15, 1) --> 18, (15, 2) --> 5, (15, 3) --> 5,
                 (15, 4) --> 18, (15, 5) --> 13, (15, 6) --> 18, (15, 7) --> 21, (15, 8) --> 11, (15, 9) --> 11,
                 (15, 10) --> 19, (15, 11) --> 2, (15, 12) --> 9, (15, 13) --> 5, (15, 14) --> 16, (15, 15) --> 0,
                 (15, 16) --> 8, (15, 17) --> 23, (15, 18) --> 5, (16, 1) --> 8, (16, 2) --> 20, (16, 3) --> 14,
                 (16, 4) --> 15, (16, 5) --> 15, (16, 6) --> 17, (16, 7) --> 2, (16, 8) --> 5, (16, 9) --> 12,
                 (16, 10) --> 7, (16, 11) --> 1, (16, 12) --> 4, (16, 13) --> 25, (16, 14) --> 22, (16, 15) --> 8,
                 (16, 16) --> 0, (16, 17) --> 15, (16, 18) --> 21, (17, 1) --> 25, (17, 2) --> 8, (17, 3) --> 14,
                 (17, 4) --> 19, (17, 5) --> 17, (17, 6) --> 3, (17, 7) --> 7, (17, 8) --> 22, (17, 9) --> 2,
                 (17, 10) --> 24, (17, 11) --> 19, (17, 12) --> 11, (17, 13) --> 9, (17, 14) --> 1, (17, 15) --> 23,
                 (17, 16) --> 15, (17, 17) --> 0, (17, 18) --> 4, (18, 1) --> 4, (18, 2) --> 20, (18, 3) --> 10,
                 (18, 4) --> 1, (18, 5) --> 7, (18, 6) --> 21, (18, 7) --> 16, (18, 8) --> 18, (18, 9) --> 3,
                 (18, 10) --> 22, (18, 11) --> 15, (18, 12) --> 4, (18, 13) --> 23, (18, 14) --> 8, (18, 15) --> 5,
                 (18, 16) --> 21, (18, 17) --> 4, (18, 18) --> 0)
letting maxDist be 29
letting minDist be 97
letting nbCharacter be 18
letting numOfCodeWords be 7
